100 4500
1 23
2 44
1 21
1 26
2 12
1 15
1 32
1 33
2 11
2 34
1 50
2 20
2 43
1 41
2 49
1 29
1 38
1 50
1 30
1 42
2 2
1 25
2 1
1 40
1 5
2 38
2 6
1 48
2 33
1 26
1 30
2 46
2 2
1 28
2 36
1 23
1 24
2 39
1 6
2 47
1 32
2 45
2 27
1 3
1 43
1 47
1 35
1 13
2 8
1 31
1 29
1 22
1 7
2 24
1 1
1 46
2 10
2 16
1 14
1 20
2 5
1 34
2 7
1 31
1 18
2 28
2 21
1 18
2 11
2 25
2 8
1 3
2 37
1 37
1 44
1 13
2 10
2 48
1 4
1 45
1 17
2 22
1 41
2 16
1 4
2 19
1 12
2 27
1 15
1 49
2 39
2 19
2 40
1 9
1 42
1 36
2 14
1 17
1 35
2 9
